language ESSENCE' 1.0
$ loaded file: carseqdata/csplib-instance-74
letting numcars=200
letting numclasses=26
letting numoptions=5
letting optMax=[1, 2, 1, 2, 1]
letting windowSize=[2, 3, 3, 5, 5]
letting numberPerClass=[4, 10, 3, 6, 8, 3, 1, 5, 7, 2, 8, 17, 31, 2, 9, 5, 3, 15, 7, 14, 21, 1, 4, 2, 9, 3]
letting optionsRequired=[[0, 0, 1, 0, 1], [0, 1, 1, 0, 0], [1, 0, 1, 1, 0], [0, 1, 0, 0, 1], [0, 1, 1, 1, 0], [1, 0, 1, 0, 1], [0, 1, 0, 1, 1], [0, 0, 0, 0, 1], [0, 0, 1, 1, 0], [0, 1, 1, 0, 1], [0, 0, 0, 1, 0], [0, 1, 0, 1, 0], [0, 1, 0, 0, 0], [1, 1, 1, 1, 0], [0, 0, 1, 0, 0], [1, 0, 0, 0, 1], [0, 0, 0, 1, 1], [1, 1, 0, 0, 0], [1, 0, 0, 1, 0], [1, 1, 0, 1, 0], [1, 0, 0, 0, 0], [1, 1, 1, 0, 1], [1, 1, 0, 0, 1], [1, 0, 0, 1, 1], [1, 0, 1, 0, 0], [1, 1, 1, 0, 0]]
